<number of tasks>
10

<cycle time>
25

<task times>
1 1
2 2
3 3
4 4
5 5
6 3
7 2
8 4
9 6
10 3

<precedence relations>
2,1
3,1
4,2
5,2
6,3
7,3
8,4
9,5
10,6

<setup times forward>
1,2:1
1,3:2
2,4:1
2,5:2
3,6:1
3,7:2
4,5:2
4,8:1
5,6:2
5,9:1
6,10:1
7,8:1
8,9:2
8,10:2
9,10:1
2,1:1
3,2:1
4,2:1
5,2:1
6,3:1
7,3:1
8,4:1
9,5:1
10,6:2

<setup times backward>
2,1:2
3,1:3
3,2:2
4,2:3
5,2:4
6,3:3
7,3:4
8,4:3
9,5:3
10,6:3
8,7:2
9,8:2
10,9:2
5,4:2
6,5:2
7,6:2
4,3:2
2,4:3
1,2:2
1,3:3
2,3:2
4,5:3
4,9:3
1,7:2

